37
120
96	1
95	1
94	1
90	2
89	2
87	1
86	1
84	1
81	2
80	1
78	1
75	1
72	1
70	2
69	2
65	3
60	1
59	1
57	1
56	1
55	1
54	1
51	1
50	1
46	1
45	2
42	1
40	2
38	4
37	2
36	1
35	1
31	1
29	1
28	1
26	1
25	1
